(set-info :smt-lib-version 2.6)
(set-logic QF_SLIA)
(set-info :source |
Generated by: Denghang Hu
Generated on: 2023-03-29
Application: Evaluate string solvers
Description: The instance consists of:
(1) a regular membership predicate from the real world
(2) a regular membership predicate to sanitize danger letters in javascript such as <,>,&,",'
(3) a lower bound for string length
Target solver: Ostrich, Z3str3, CVC5
|)
(set-info :license "https://creativecommons.org/licenses/by/4.0/")
(set-info :category "industrial")
(set-info :status unknown)
        ;test regex (Password@(\d{2,6}))|(Pa\$\$w0rd@(\d{2,6}))|(Password#(\d{2,6}))|(Pa\$\$w0rd#(\d{2,6}))|(Password_(\d{2,6}))|(Pa\$\$w0rd_(\d{2,6})).$
(declare-const X String)
(assert (str.in_re X (re.union (re.union (re.union (re.union (re.union (re.++ (str.to_re "P") (re.++ (str.to_re "a") (re.++ (str.to_re "s") (re.++ (str.to_re "s") (re.++ (str.to_re "w") (re.++ (str.to_re "o") (re.++ (str.to_re "r") (re.++ (str.to_re "d") (re.++ (str.to_re "@") ((_ re.loop 2 6) (re.range "0" "9"))))))))))) (re.++ (str.to_re "P") (re.++ (str.to_re "a") (re.++ (str.to_re "$") (re.++ (str.to_re "$") (re.++ (str.to_re "w") (re.++ (str.to_re "0") (re.++ (str.to_re "r") (re.++ (str.to_re "d") (re.++ (str.to_re "@") ((_ re.loop 2 6) (re.range "0" "9")))))))))))) (re.++ (str.to_re "P") (re.++ (str.to_re "a") (re.++ (str.to_re "s") (re.++ (str.to_re "s") (re.++ (str.to_re "w") (re.++ (str.to_re "o") (re.++ (str.to_re "r") (re.++ (str.to_re "d") (re.++ (str.to_re "#") ((_ re.loop 2 6) (re.range "0" "9")))))))))))) (re.++ (str.to_re "P") (re.++ (str.to_re "a") (re.++ (str.to_re "$") (re.++ (str.to_re "$") (re.++ (str.to_re "w") (re.++ (str.to_re "0") (re.++ (str.to_re "r") (re.++ (str.to_re "d") (re.++ (str.to_re "#") ((_ re.loop 2 6) (re.range "0" "9")))))))))))) (re.++ (str.to_re "P") (re.++ (str.to_re "a") (re.++ (str.to_re "s") (re.++ (str.to_re "s") (re.++ (str.to_re "w") (re.++ (str.to_re "o") (re.++ (str.to_re "r") (re.++ (str.to_re "d") (re.++ (str.to_re "_") ((_ re.loop 2 6) (re.range "0" "9")))))))))))) (re.++ (re.++ (re.++ (str.to_re "P") (re.++ (str.to_re "a") (re.++ (str.to_re "$") (re.++ (str.to_re "$") (re.++ (str.to_re "w") (re.++ (str.to_re "0") (re.++ (str.to_re "r") (re.++ (str.to_re "d") (re.++ (str.to_re "_") ((_ re.loop 2 6) (re.range "0" "9"))))))))))) (re.diff re.allchar (str.to_re "\n"))) (str.to_re "")))))
; sanitize danger characters:  < > ' " &
(assert (not (str.in_re X (re.++ re.all (re.union (str.to_re "\u{3c}") (str.to_re "\u{3e}") (str.to_re "\u{27}") (str.to_re "\u{22}") (str.to_re "\u{26}")) re.all))))
(assert (< 20 (str.len X)))
(check-sat)
(exit)
